TYPE : Vertex Cover
DIMENSION: 24
EDGE_DATA_SECTION:
0 1
0 6
0 7
0 9
0 13
0 15
0 21
1 4
1 12
1 13
1 14
1 15
1 17
2 6
2 16
2 17
3 17
3 20
3 23
4 10
4 11
4 13
4 14
5 8
5 13
5 18
6 7
6 9
6 12
6 13
6 15
6 19
6 23
7 11
7 17
7 22
8 10
8 12
8 13
8 15
8 17
8 21
8 22
9 12
9 14
9 15
9 17
9 23
10 16
10 18
10 21
11 13
11 21
12 13
12 14
12 19
12 22
12 23
13 15
13 16
14 18
14 20
14 23
15 18
17 22
18 19
18 20
18 21
-1
VERTEX_DEGREE:
7.0 7.0 3.0 3.0 5.0 3.0 9.0 5.0 8.0 7.0 5.0 4.0 9.0 10.0 7.0 7.0 3.0 7.0 7.0 3.0 3.0 5.0 4.0 5.0
VERTEX_COVER:
0 1 2 3 6 7 8 9 10 11 12 13 14 18 22
EOF
